# GHz S RI R 50
1        0.5515523852       -0.8238614494         -9.15764334         5.212262067         0.021672012       0.03845022097         0.462295365       -0.2668988274
1.09        0.4891821464       -0.8609811796        -8.762328144         5.446673159        0.0246851422       0.04011956336        0.4431330525       -0.2795669947
1.18        0.4270214626       -0.8921204066        -8.368343881         5.643174691       0.02768780311       0.04149965932        0.4240316859       -0.2904011765
1.27        0.3656505588       -0.9177114363        -7.979368546         5.804508301       0.03065192483       0.04261141409        0.4051691263       -0.2995340635
1.36        0.3055410312       -0.9382196431         -7.59839069          5.93362324       0.03355470745       0.04347731514        0.3866899851       -0.3071082463
1.45        0.2470627239       -0.9541228395        -7.227754491         6.033548971       0.03637825855       0.04412047758        0.3687075885       -0.3132703164
1.54        0.1904950307       -0.9658955485          -6.8692322         6.107292015       0.03910905427       0.04456389129        0.3513076979       -0.3181657001
1.63        0.1360384345       -0.9739962822        -6.524092239         6.157759562       0.04173743685       0.04482970921        0.3345516447       -0.3219348793
1.72       0.08382538032       -0.9788598575        -6.193176358         6.187709087       0.04425692633       0.04493896868        0.3184802408       -0.3247113751
1.81       0.03393210171       -0.9808918709        -5.876966933         6.199709096       0.04666390204       0.04491125788        0.3031167227       -0.3266193582
1.9       -0.0136105065        -0.980464841        -5.575660536         6.196123027       0.04895683323        0.0447646448        0.2884705978       -0.3277731273
1.99      -0.05880852164       -0.9779181674         -5.28921655         6.179100988       0.05113603732       0.04451552468        0.2745399401       -0.3282766681
2.08       -0.1016965745       -0.9735576219         -5.01741714         6.150580865       0.05320316241       0.04417871729          0.26131428       -0.3282236972
2.17       -0.1423309357       -0.9676562942        -4.759905453         6.112295241       0.05516094867       0.04376738299        0.2487762832       -0.3276981352
2.26       -0.1807837682       -0.9604568264        -4.516223888         6.065781174       0.05701289163       0.04329330257        0.2369037492       -0.3267741912
2.35       -0.2171383871        -0.952173532        -4.285845053         6.012397185       0.05876298546       0.04276681996        0.2256713612       -0.3255174935
2.44       -0.2514852453       -0.9429945108        -4.068194099          5.95333581       0.06041566732       0.04219705333        0.2150510698       -0.3239859013
2.53       -0.2839195947       -0.9330842791        -3.862668102         5.889639712       0.06197550969       0.04159197698        0.2050138484       -0.3222298328
2.62       -0.3145381354       -0.9225859337        -3.668655176         5.822215887       0.06344717678       0.04095843513        0.1955300966       -0.3202929631
2.71       -0.3434373408       -0.9116237202        -3.485541429         5.751852077       0.06483536579       0.04030254886        0.1865701078       -0.3182135025
2.8       -0.3707131339       -0.9003049398        -3.312721423         5.679227906        0.0661446646       0.03962939138        0.1781047693       -0.3160241621
2.89       -0.3964580823       -0.8887221622        -3.149606234         5.604930585       0.06737959625       0.03894353629        0.1701053594       -0.3137536773
2.98       -0.4207626499       -0.8769542462        -2.995624215         5.529460233       0.06854456654       0.03824883198         0.162544145       -0.3114260594
3.07       -0.4437122639       -0.8650691638        -2.850232294         5.453247596       0.06964365466       0.03754839876        0.1553951127       -0.3090618592
3.16       -0.4653894603       -0.8531248064        -2.712907712         5.376659396       0.07068089513       0.03684519388        0.1486327867        -0.306679159
3.25       -0.4858725377        -0.841170197        -2.583155456         5.300006488       0.07165998333       0.03614147364        0.1422334947       -0.3042929168
3.34       -0.5052347717       -0.8292465951        -2.460509743         5.223550376       0.07258454915       0.03543941469         0.136174605       -0.3019154534
3.43       -0.5235460967        -0.817388804        -2.344526808         5.147511651       0.07345796934       0.03474049308        0.1304344283       -0.2995578304
3.52       -0.5408723216       -0.8056258274        -2.234792074         5.072074819       0.07428344155       0.03404627158        0.1249928341       -0.2972289908
3.61       -0.5572739971       -0.7939821929        -2.130918314         4.997393996       0.07506383069       0.03335786321         0.119831708       -0.2949359838
3.7       -0.5728093539       -0.7824774257        -2.032538841         4.923594178       0.07580200297       0.03267618863        0.1149327623       -0.2926851492
3.79       -0.5875319254       -0.7711277491        -1.939312031         4.850777563       0.07650055106       0.03200205609        0.1102796241       -0.2904812787
3.88       -0.6014925718       -0.7599463888        -1.850919736         4.779028169       0.07716187855        0.0313361623        0.1058571203       -0.2883283709
3.97       -0.6147379166       -0.7489433174        -1.767062225         4.708409629       0.07778835091       0.03067889786        0.1016501978       -0.2862296263
4.06       -0.6273120076       -0.7381270731         -1.68746154         4.638975163       0.07838198698       0.03003076345       0.09764604581       -0.2841876491
4.15       -0.6392560101       -0.7275031755        -1.611857333         4.570760701       0.07894479511       0.02939200973       0.09383187048       -0.2822039687
4.24       -0.6506081736        -0.717076312        -1.540006814         4.503795062       0.07947869948       0.02876286079       0.09019574637       -0.2802803013
4.33       -0.6614040796       -0.7068491558        -1.471684727         4.438096038       0.07998533198       0.02814336973       0.08672703359       -0.2784171702
4.42       -0.6716769683       -0.6968231544        -1.406679343         4.373672445       0.08046637146       0.02753370538       0.08341523807        -0.276614945
4.51        -0.681458067       -0.6869990929        -1.344793465         4.310529435       0.08092331709       0.02693386711       0.08025097047       -0.2748740676
4.6       -0.6907765969       -0.6773768096        -1.285843671         4.248665703        0.0813575216       0.02634379756       0.07722539173       -0.2731944666
4.69       -0.6996591045       -0.6679550104        -1.229659023         4.188073204       0.08177035609       0.02576358221       0.07433015445       -0.2715754241
4.78       -0.7081309043        -0.658732276        -1.176077897          4.12874332       0.08216299348       0.02519302371       0.07155748739       -0.2700170583
4.87       -0.7162162044       -0.6497064441        -1.124951805         4.070661467       0.08253659706       0.02463206676       0.06890017974       -0.2685183313
4.96         -0.72393653       -0.6408747992        -1.076141458         4.013811148        0.0828922342        0.0240805434       0.06635156436       -0.2670783155
5.05       -0.7313121746       -0.6322346044        -1.029515443         3.958174676       0.08323087945       0.02353836964       0.06390527666       -0.2656964624
5.14       -0.7383627751       -0.6237824926       -0.9849531692         3.903731047       0.08355350282       0.02300535047       0.06155530439       -0.2643713946
5.23       -0.7451065101       -0.6155152072       -0.9423396512         3.850459389       0.08386093874       0.02248140175       0.05929636825        -0.263102321
5.32       -0.7515596625       -0.6074290268       -0.9015687517         3.798336509       0.08415403315       0.02196624417       0.05712305405       -0.2618879877
5.41       -0.7577384018       -0.5995205332        -0.862540261         3.747339872       0.08443348939       0.02145970887       0.05503090446       -0.2607274048
5.5        -0.763657006       -0.5917856989       -0.8251611612         3.697444913        0.0847000723       0.02096171375       0.05301514608       -0.2596192551
5.59       -0.7693298682        -0.584220633       -0.7893435726         3.648626739       0.08495445378       0.02047195091       0.05107148044       -0.2585623265
5.68       -0.7747696981       -0.5768215948       -0.7550048259         3.600861102       0.08519724465       0.01999033678       0.04919596934        -0.257555608
5.77       -0.7799885426        -0.569584594       -0.7220686394         3.554123409       0.08542904658       0.01951659182       0.04738502043       -0.2565977127
5.86       -0.7849981154       -0.5625057345       -0.6904618316         3.508388465       0.08565038588       0.01905066033       0.04563506543       -0.2556875726
5.95        -0.789808894       -0.5555813317       -0.6601176852         3.463632952        0.0858617798       0.01859229048       0.04394296208       -0.2548239105
6.04       -0.7944308113       -0.5488072538       -0.6309725079         3.419831316       0.08606375368       0.01814120334        0.0423054843       -0.2540053169
6.13       -0.7988734595         -0.54217974       -0.6029655471         3.376959055       0.08625673769       0.01769728691       0.04071967019       -0.2532307528
6.22        -0.803146091       -0.5356953447       -0.5760389337         3.334994566       0.08644114662       0.01726048562       0.03918287702       -0.2524998345
6.31       -0.8072561811       -0.5293500271       -0.5501434143         3.293912356       0.08661743234       0.01683040837       0.03769257076       -0.2518100227
6.4       -0.8112126565       -0.5231403303        -0.525225974          3.25369044       0.08678593997         0.016406999       0.03624638043       -0.2511611773
6.49       -0.8150220864       -0.5170628875        -0.501241917         3.214306975       0.08694701928       0.01599003346       0.03484219357       -0.2505516445
6.58       -0.8186919557       -0.5111139173       -0.4781438697         3.175738683       0.08710105784       0.01557945783       0.03347726538       -0.2499810725
6.67       -0.8222286183       -0.5052900959       -0.4558927625         3.137964597       0.08724833883       0.01517493489       0.03215007711       -0.2494476481
6.76       -0.8256384296       -0.4995882212       -0.4344477107          3.10096399       0.08738917689       0.01477652209       0.03085862896       -0.2489508204
6.85       -0.8289273029       -0.4940050039       -0.4137723756         3.064716194       0.08752384333       0.01438382656       0.02960117834       -0.2484892842
6.94       -0.8321004799       -0.4885372283       -0.3938305043         3.029200709       0.08765261098       0.01399690545       0.02837587154       -0.2480623193
7.03         -0.83516376       -0.4831819841        -0.374590481         2.994399097        0.0877757485       0.01361547902       0.02718132951       -0.2476686277
7.12       -0.8381216035       -0.4779361893        -0.356019861         2.960292082       0.08789345139       0.01323937815       0.02601595306       -0.2473075441
7.21       -0.8409786961       -0.4727969017       -0.3380883998         2.926860802       0.08800600689       0.01286866156       0.02487809841       -0.2469782901
7.3        -0.843739723        -0.467761327       -0.3207684973         2.894087716       0.08811360357       0.01250293583       0.02376659746       -0.2466798633
7.39       -0.8464088094       -0.4628267585       -0.3040343246           2.8619555       0.08821643247       0.01214220125       0.02268029565       -0.2464111466
7.48       -0.8489899739       -0.4579904226       -0.2878597125         2.830446722       0.08831468811       0.01178634615       0.02161782467       -0.2461715483
7.57       -0.8514868923       -0.4532498636       -0.2722208824         2.799545575       0.08840857925       0.01143525958       0.02057798339       -0.2459603339
7.66       -0.8539031373       -0.4486024458       -0.2570950623         2.769235615       0.08849827266       0.01108882955       0.01955963847       -0.2457766782
7.75       -0.8562422764       -0.4440458195       -0.2424615784         2.739501991       0.08858390048       0.01074671844       0.01856208477       -0.2456196002
7.84       -0.8585072109       -0.4395774918       -0.2282991105         2.710328813       0.08866566296       0.01040909682       0.01758392224       -0.2454885803
7.93       -0.8607012857       -0.4351952705       -0.2145883798         2.681702069       0.08874367676        0.0100756832       0.01662444012       -0.2453829365
8.02       -0.8628274032       -0.4308968406       -0.2013109005         2.653607159       0.08881811782       0.00974653546       0.01568271149       -0.2453019332
8.11       -0.8648882347       -0.4266801789       -0.1884493044         2.626031215       0.08888908349      0.009421540468       0.01475797171       -0.2452449816
8.2       -0.8668862405        -0.422542957       -0.1759880844         2.598959976       0.08895671093      0.009100249439       0.01384933988       -0.2452108657
8.29         -0.86882398       -0.4184833242       -0.1639095274         2.572381006       0.08902112083      0.008783112355       0.01295601353       -0.2451997221
8.38        -0.870704023       -0.4144992093        -0.152200435         2.546281728        0.0890824445      0.008469455838       0.01207747953       -0.2452102101
8.47       -0.8725287111       -0.4105887334       -0.1408439678         2.520649725       0.08914073437      0.008159671627       0.01121277589       -0.2452426601
8.56       -0.8742998295       -0.4067499381       -0.1298288796         2.495473134       0.08919619669      0.007853370316       0.01036137962       -0.2452955502
8.65       -0.8760198272        -0.402981236       -0.1191410287         2.470741417       0.08924885165       0.00755066183      0.009522771188       -0.2453688744
8.74       -0.8776902721       -0.3992806177       -0.1087690207         2.446442409       0.08929884793      0.007251211263      0.008696175152       -0.2454615353
8.83       -0.8793132781       -0.3956465809      -0.09869881244         2.422565886       0.08934621367      0.006955297628      0.007880980546       -0.2455739631
8.92       -0.8808901859       -0.3920773239      -0.08892185952         2.399101219       0.08939109013      0.006662417465      0.007076895145       -0.2457044955
9.01       -0.8824235623       -0.3885713881       -0.0794246648           2.3760384       0.08943351528      0.006372962762      0.006283251015       -0.2458537621
9.1        -0.883914411       -0.3851271013      -0.07019958412         2.353367462       0.08947363513       0.00608631816      0.005499572284       -0.2460201732
9.19        -0.885364403       -0.3817430396      -0.06123519219         2.331079025       0.08951147142      0.005802931454      0.004725385831       -0.2462039337
9.28       -0.8867750987       -0.3784177847      -0.05252161472          2.30916402       0.08954707138      0.005522577114      0.003960265975       -0.2464048188
9.37       -0.8881478423       -0.3751497572      -0.04405134394         2.287612816       0.08958058297       0.00524497744      0.003203674207       -0.2466216768
9.46       -0.8894836312       -0.3719376823      -0.03581529491         2.266417274       0.08961199873      0.004970242164      0.002455389031       -0.2468543544
9.55       -0.8907842548       -0.3687801971      -0.02780522616         2.245568623       0.08964142267      0.004698148296      0.001714988169       -0.2471024009
9.64       -0.8920509376       -0.3656760664      -0.02001280969         2.225058948       0.08966891298      0.004428920714      0.000981948056       -0.2473656641
9.73       -0.8932846836       -0.3626239965      -0.01243143563         2.204880298       0.08969453175      0.004162334979     0.0002561371299        -0.247643335
9.82       -0.8944869429       -0.3596228184     -0.005052078464         2.185024768        0.0897182761      0.003898388856    -0.0004630730188       -0.2479358354
9.91       -0.8956582736       -0.3566712402      0.002129920187          2.16548487       0.08974026696      0.003636804267     -0.001175743984       -0.2482417759
10        -0.896799792       -0.3537681053      0.009121660734         2.146253152       0.08976055081      0.003377749762     -0.001882321416       -0.2485609905
